1915, 0, 0, 50, 1
1916, 0, 1, 81, 0
1917, 0, 2, 67, 2
1918, 0, 3, 38, 3
1919, 1, 0, 59, 0
1920, 1, 1, 49, 1
1921, 1, 2, 53, 3
1922, 1, 3, 84, 2
1923, 2, 0, 64, 0
1924, 2, 1, 62, 3
1925, 2, 2, 77, 1
1926, 2, 3, 93, 2
1927, 3, 0, 74, 1
1928, 3, 1, 99, 2
1929, 3, 2, 75, 0
1930, 3, 3, 97, 3
